10
1 0 27
2 0 18
2 1 57
3 0 54
3 1 44
3 2 54
4 0 45
4 1 22
4 2 50
4 3 48
5 0 36
5 1 26
5 2 37
5 3 1
5 4 49
6 0 7
6 1 45
6 2 15
6 3 14
6 4 21
6 5 17
7 0 54
7 1 10
7 2 47
7 3 23
7 4 10
7 5 26
7 6 57
8 0 33
8 1 7
8 2 48
8 3 49
8 4 11
8 5 28
8 6 52
8 7 23
9 0 18
9 1 38
9 2 5
9 3 12
9 4 33
9 5 11
9 6 40
9 7 4
9 8 2
